p cnf 486 2304
-16 40 -2 47 1 0
35 -5 -19 -13 38 0
24 -44 -28 43 27 0
-8 20 38 21 22 0
35 -23 -26 20 -50 0
49 -16 -7 -14 38 0
-27 -49 -26 -22 -6 0
1 -23 30 44 8 0
-46 -20 26 7 -10 0
-27 24 -1 30 -43 0
10 -19 -43 -34 22 0
-22 36 -40 -15 8 0
2 38 -5 15 -37 0
-21 2 39 24 15 0
-45 47 -19 8 36 0
-10 -11 -22 -37 -16 0
46 -50 9 18 2 0
-32 15 17 -23 12 0
7 31 45 -16 -40 0
-28 -10 -50 -37 -49 0
32 -28 -41 -4 40 0
-49 50 22 -26 46 0
6 -22 20 -27 -3 0
-39 19 23 18 -26 0
-39 -14 44 24 -9 0
-44 -16 17 -28 -33 0
-1 5 -31 17 41 0
50 45 11 -13 34 0
16 24 -33 -9 25 0
-13 -41 11 -47 30 0
-24 -10 -17 -4 -29 0
-23 -41 -32 45 -33 0
-36 43 -29 49 -10 0
-15 -16 42 14 24 0
-32 -22 -17 -9 43 0
-11 -10 8 -40 39 0
-46 -23 33 14 -29 0
5 38 44 -29 -13 0
1 36 -37 11 16 0
2 11 -32 -45 -7 0
3 -36 -44 -8 1 0
19 12 -32 -11 4 0
-48 41 39 -35 43 0
13 24 -20 -23 35 0
-13 35 4 -25 -18 0
31 -49 21 -5 -40 0
43 -15 -35 -34 36 0
-39 50 33 41 -48 0
-17 -41 15 10 -49 0
5 13 23 44 -32 0
-20 -4 38 50 -39 0
42 -20 22 -13 -49 0
-36 13 -4 46 -10 0
-45 36 47 -18 -6 0
-24 -21 33 35 40 0
31 38 22 9 35 0
8 -22 -33 32 34 0
43 -19 38 16 -15 0
-49 -21 -12 -4 29 0
-40 18 20 -34 -35 0
4 38 49 19 36 0
47 -18 12 20 13 0
33 30 -14 -27 42 0
33 19 -50 -25 -24 0
-15 -31 -7 -24 -48 0
5 3 -26 -14 6 0
39 -31 9 -27 -8 0
44 -16 36 45 37 0
16 20 18 -34 -29 0
29 -50 -38 24 44 0
-11 5 23 19 -8 0
24 10 -16 -50 45 0
-34 -42 44 -22 -45 0
16 -36 -26 38 -37 0
42 8 13 14 34 0
-28 -37 23 17 -47 0
9 14 -38 36 6 0
-15 5 4 -29 31 0
38 -50 6 42 -13 0
-22 33 -16 8 36 0
-33 44 14 -1 3 0
-13 32 -38 -26 -43 0
-40 31 -19 -11 -9 0
45 26 -10 -17 24 0
4 44 46 -23 -2 0
6 8 -5 -9 -44 0
-2 -18 11 28 -45 0
18 -47 34 -31 3 0
-36 -25 45 -43 -20 0
8 -28 43 41 47 0
-2 -48 -41 -28 -6 0
30 -33 -11 -2 34 0
-13 -4 42 16 -11 0
-28 24 -48 -3 -12 0
-7 -35 17 -40 2 0
35 46 9 -27 -7 0
-47 14 -2 -17 -21 0
20 28 39 31 -5 0
-40 -6 -42 -11 4 0
8 -47 23 37 -11 0
-43 -4 14 -1 49 0
37 1 -7 -21 47 0
27 -19 -39 22 -34 0
15 20 -5 46 17 0
-9 -49 31 -44 7 0
-7 21 20 -13 9 0
-38 -23 -44 17 40 0
11 24 10 -23 -21 0
-13 -21 27 19 -26 0
-8 28 -3 -34 -5 0
38 33 -39 -49 14 0
42 14 17 24 1 0
18 -7 -4 20 -13 0
-26 27 1 -10 -43 0
-25 37 48 -39 8 0
30 5 42 21 -46 0
25 38 -30 45 -40 0
-40 10 -44 31 21 0
10 1 -37 32 15 0
32 11 -20 49 -17 0
-21 -50 11 -12 27 0
-48 1 -12 23 36 0
26 47 -16 -20 -44 0
-30 -50 -12 -9 40 0
-33 6 15 -47 -7 0
4 -17 -22 39 9 0
-34 29 -42 16 -38 0
-16 48 18 9 -4 0
-10 38 -22 14 16 0
3 46 22 -31 -10 0
-46 -22 15 -29 37 0
-22 34 40 -33 -4 0
-24 -11 -18 -5 7 0
-9 -42 -10 44 -17 0
44 19 5 36 -13 0
-24 -1 -32 -37 6 0
49 -33 36 -1 -23 0
18 2 40 -29 -38 0
-43 -36 -49 34 9 0
32 24 -18 -3 -12 0
16 -25 -14 -42 -19 0
37 1 -48 20 5 0
-39 -45 10 28 40 0
-8 -21 50 3 27 0
35 -4 8 23 -38 0
3 39 36 -32 48 0
31 43 -6 21 4 0
-22 35 25 -18 -39 0
-50 -21 31 49 -10 0
13 23 44 22 -10 0
7 5 21 -43 40 0
-22 20 8 33 28 0
20 50 -40 -44 -46 0
6 49 28 45 -25 0
43 27 44 39 -1 0
6 -41 -49 -21 30 0
14 4 -41 24 -48 0
42 -48 -15 5 -24 0
-49 45 6 -40 -11 0
13 -49 -45 7 -41 0
-33 34 -44 -9 -13 0
-30 -7 -42 23 -20 0
-2 -44 -32 6 35 0
3 -42 -44 35 17 0
37 -6 -9 15 -34 0
17 38 34 29 39 0
-2 -22 -30 50 39 0
9 21 -44 5 -36 0
4 -41 18 38 -2 0
45 -19 25 29 -41 0
-46 22 31 -41 -37 0
23 40 -50 -41 -31 0
-25 -11 -47 -28 -24 0
-44 1 36 33 10 0
47 14 -17 3 50 0
-18 -7 21 24 -11 0
15 32 22 -35 3 0
-27 39 24 19 -32 0
-48 12 4 38 -28 0
19 -50 12 -3 -28 0
44 50 14 17 -42 0
12 -39 -31 50 -11 0
-47 -18 -49 19 42 0
43 -24 19 -18 5 0
1 26 -22 -21 24 0
26 18 -28 24 -21 0
-36 -38 44 46 -22 0
-29 19 3 20 16 0
-1 -32 33 17 -27 0
-16 -2 49 -3 -44 0
-33 46 12 -29 26 0
-28 17 -40 50 19 0
-19 7 9 36 -28 0
-26 -32 -31 37 -7 0
-5 32 11 15 38 0
-1 -39 -27 20 2 0
-22 -6 -38 -46 34 0
-39 -3 -2 -33 42 0
11 -20 -28 5 29 0
1 -2 16 9 6 0
-18 -41 12 -30 28 0
-11 -6 16 21 -15 0
19 -22 -49 -13 -8 0
-28 3 38 34 -27 0
45 25 2 28 -46 0
-25 8 -34 -48 35 0
-8 18 -1 -16 -25 0
-11 -39 -46 37 6 0
-37 -27 -21 -2 25 0
-48 -40 10 23 -30 0
-6 37 9 41 -22 0
18 -36 -14 -2 -32 0
-22 -6 23 -41 50 0
14 -20 36 -19 32 0
2 -34 48 20 8 0
-44 -11 14 -26 -16 0
-38 -25 -46 43 32 0
-7 31 -18 3 -22 0
-27 -24 -43 34 -1 0
-13 47 28 -9 -24 0
6 -33 32 -4 14 0
41 44 29 50 13 0
-20 -18 46 -8 39 0
-38 12 24 25 32 0
-10 -33 38 -34 16 0
-21 -33 -9 19 -42 0
-3 30 31 -25 8 0
-50 -34 2 -13 47 0
-30 -24 46 -7 -43 0
27 -48 -15 -2 -8 0
48 10 -6 -47 -7 0
44 -50 1 -22 15 0
-20 9 -40 24 26 0
19 -45 -2 -10 4 0
-24 -3 -5 -35 16 0
-23 41 37 6 -25 0
3 9 44 -50 -38 0
-43 22 24 18 -41 0
2 -25 39 46 -18 0
-10 -23 -49 -15 4 0
31 4 40 -35 -28 0
46 -43 44 45 -36 0
6 -21 26 -33 11 0
8 -16 -39 19 43 0
-36 -42 -8 -11 2 0
32 -11 -15 -43 -16 0
-44 -25 -16 7 -40 0
-41 6 -7 -12 50 0
-46 -48 43 8 12 0
-49 4 48 9 -28 0
39 19 43 -8 4 0
41 -35 21 -30 50 0
40 19 10 -4 -30 0
6 9 14 -31 29 0
-32 6 23 -5 35 0
-9 48 -1 35 -32 0
-44 -21 30 15 -36 0
-5 -18 50 -49 -15 0
15 -34 -50 28 27 0
9 27 22 -3 -6 0
-24 -12 7 47 -13 0
-22 -46 -16 -26 44 0
32 11 3 -10 -2 0
7 1 42 39 -31 0
9 -35 -14 -13 25 0
-24 -35 -22 -40 -18 0
33 41 37 10 -23 0
23 -27 18 -21 4 0
-37 30 -2 -43 22 0
35 -31 11 30 -2 0
28 11 -32 -18 25 0
-32 -16 -5 26 42 0
-9 14 -21 34 45 0
-15 32 -13 41 -36 0
-12 -31 3 -27 -24 0
-28 -24 30 -23 10 0
45 -17 41 47 -46 0
42 22 -5 -11 -16 0
32 50 -22 -42 24 0
23 -29 2 33 -24 0
-8 -3 37 12 24 0
-25 18 19 -33 43 0
17 39 12 -45 -23 0
37 43 45 -23 -47 0
-49 -45 -27 -2 -41 0
9 -28 -23 20 -17 0
36 48 -9 -15 45 0
-6 40 -18 -13 8 0
40 4 6 3 -32 0
16 27 19 -17 33 0
-7 9 -10 17 -3 0
-1 47 20 5 24 0
-35 29 50 19 38 0
30 48 -27 16 -33 0
-19 -2 12 49 14 0
3 45 -20 15 36 0
-40 -28 -5 42 38 0
41 23 30 39 -35 0
32 31 -44 -17 47 0
-20 -41 -7 24 -33 0
-26 -9 4 45 -15 0
29 46 -25 37 -19 0
48 -39 -11 -40 -3 0
-38 -8 -26 -42 50 0
-38 33 -15 -10 37 0
-12 24 14 -13 16 0
-16 22 -28 38 -34 0
-9 -25 -30 -3 4 0
30 34 2 -27 50 0
9 50 14 43 -46 0
-48 38 36 -33 17 0
-46 -33 -50 -11 -5 0
6 -49 -42 26 -37 0
-8 -47 -11 41 -14 0
-23 -18 46 -47 -4 0
2 -18 32 33 -9 0
2 46 38 -28 -11 0
-43 24 18 28 -16 0
17 -40 -13 -37 38 0
13 27 -36 -33 37 0
-26 30 -18 -10 39 0
23 -14 11 48 -24 0
-38 4 -32 19 18 0
41 8 50 31 -22 0
-10 37 -20 -46 -45 0
-10 -34 -47 -23 -17 0
-31 -46 32 -22 -50 0
27 -50 40 -25 -8 0
33 42 15 -22 24 0
-15 4 43 -47 -11 0
-18 49 -16 42 44 0
-10 -40 -27 -7 -48 0
-35 -3 11 -37 42 0
33 2 1 -11 -34 0
-16 -45 -14 -13 -10 0
-11 -38 -3 -33 22 0
22 -7 -25 13 -6 0
-34 -25 -30 44 -13 0
-21 -22 39 18 4 0
46 36 -19 -33 35 0
23 36 -48 -47 38 0
5 -4 -34 18 13 0
12 -2 32 -6 -46 0
20 -24 -33 -11 28 0
-35 -17 16 -49 3 0
-18 34 -32 -2 3 0
4 -26 -18 38 9 0
-43 30 -46 39 -7 0
32 -45 -37 15 50 0
32 35 48 18 -30 0
-14 16 35 7 38 0
17 19 -12 -7 8 0
45 -26 -14 31 -25 0
24 -21 49 -15 -48 0
-41 19 -34 -44 -6 0
-41 -40 34 35 -50 0
-49 28 23 42 17 0
18 32 16 -9 24 0
-18 -4 43 -17 -30 0
4 -47 15 -36 -20 0
28 8 37 -43 -45 0
-27 -24 -12 48 -9 0
-22 12 -13 -49 -3 0
34 44 20 24 28 0
24 32 27 -12 20 0
-49 -14 27 11 40 0
-41 50 -37 32 1 0
-36 32 48 30 -31 0
-36 -15 5 -34 17 0
49 -14 -18 -39 21 0
-23 27 10 -4 6 0
14 38 -44 -43 -37 0
-19 -28 9 -12 -23 0
-43 -34 -29 3 -37 0
-11 -36 48 -16 -7 0
28 7 30 -18 16 0
-23 3 -45 -2 5 0
-23 -44 -31 48 -47 0
-50 42 10 47 -41 0
-37 -5 31 14 -43 0
20 -24 25 18 -32 0
-27 -43 -3 13 1 0
-15 -20 -25 24 -33 0
-7 44 -30 6 -34 0
-27 -48 -11 -3 4 0
-50 -30 -18 43 14 0
-6 -35 47 17 -34 0
12 36 50 45 -7 0
-28 -25 -37 44 -17 0
-4 36 31 -9 35 0
2 8 -19 -7 -47 0
23 -2 -4 18 48 0
-26 -1 32 -44 33 0
34 -7 14 37 -29 0
-24 -17 -43 38 20 0
-44 4 42 22 -26 0
-1 -48 -50 30 -13 0
37 31 10 32 6 0
49 39 -18 40 17 0
-14 -16 29 -3 49 0
19 9 11 37 17 0
-47 21 48 26 -23 0
3 -32 -44 -14 -35 0
3 -37 -2 -19 -43 0
-19 25 -9 21 27 0
-24 -22 -1 -46 -42 0
-47 41 -12 -18 8 0
-12 -30 27 22 -45 0
31 -18 25 -5 20 0
43 -11 -15 41 9 0
35 15 2 46 -23 0
-43 30 -44 46 5 0
7 -3 -49 -18 40 0
-21 50 32 -43 -31 0
5 1 12 -38 -22 0
-6 2 -38 50 13 0
-21 -48 17 -1 28 0
-44 -6 36 30 -49 0
36 5 -43 -11 29 0
48 -22 -9 -45 -17 0
-19 -12 6 -11 -50 0
-15 9 -43 47 49 0
4 -25 1 29 -30 0
-11 49 -17 5 26 0
-11 -24 -37 -2 -22 0
8 36 -1 37 4 0
-5 1 -2 36 -30 0
-25 -39 -38 8 35 0
42 -32 -1 -7 -26 0
-26 45 -10 43 24 0
-21 -26 48 5 46 0
43 -6 42 -4 -44 0
30 -22 36 24 -39 0
45 -24 31 16 -10 0
26 35 21 -17 43 0
-25 48 -34 -24 6 0
46 42 -38 18 -12 0
2 -19 17 45 14 0
-3 -25 -41 35 -42 0
34 40 -18 -24 -23 0
-35 -50 29 11 -46 0
-43 -38 4 1 21 0
40 30 39 -21 -19 0
-14 -48 -43 -31 10 0
41 -33 28 -30 17 0
-33 37 36 40 17 0
10 35 36 -49 -16 0
-2 -19 5 38 13 0
45 -12 6 22 13 0
36 33 -49 -38 30 0
-26 12 37 32 -20 0
-19 -11 48 -39 6 0
1 32 -24 -33 48 0
-26 -22 -50 24 18 0
-20 -46 23 -32 17 0
-7 -9 -4 -33 48 0
-15 9 43 12 -19 0
39 -1 13 26 47 0
-20 -41 33 49 -50 0
-30 -29 22 42 35 0
-6 -42 -17 -2 12 0
49 -20 -8 24 32 0
-39 -5 -19 -42 -3 0
42 -37 25 30 -1 0
32 26 -38 -12 14 0
-10 44 -15 -12 -49 0
33 50 21 -35 15 0
-44 29 -20 35 -50 0
15 -23 -32 41 -12 0
12 28 -21 -43 2 0
10 -28 11 -31 20 0
-23 -17 -3 -5 -35 0
7 -33 -37 -15 50 0
-48 -6 21 37 17 0
-6 -35 -5 -10 40 0
22 -17 12 -9 -7 0
-21 -17 20 43 -37 0
34 46 -4 28 -17 0
-5 11 -42 6 -34 0
-1 -20 -29 -36 16 0
-9 5 -35 -6 -14 0
-40 9 43 25 -38 0
-23 -48 8 6 25 0
4 -44 47 -11 16 0
-46 -8 -33 -15 32 0
39 -29 -47 -44 31 0
-16 -21 -31 24 15 0
-27 -8 23 -29 -15 0
-37 17 36 -41 50 0
-40 4 24 22 -44 0
-20 -50 8 4 49 0
29 16 -35 -27 -17 0
15 -44 9 -8 -28 0
-14 21 48 6 -27 0
-33 44 40 41 -21 0
34 -40 -14 43 -46 0
5 47 -15 -2 -24 0
45 1 46 49 -14 0
20 -23 25 -43 -26 0
26 35 4 -13 -28 0
1 3 51 0
-1 3 -51 0
1 -3 -51 0
-1 -3 51 0
-4 7 52 0
4 7 -52 0
-4 -7 -52 0
4 -7 52 0
-9 -12 53 0
9 -12 -53 0
-9 12 -53 0
9 12 53 0
-15 16 54 0
15 16 -54 0
-15 -16 -54 0
15 -16 54 0
-17 19 55 0
17 19 -55 0
-17 -19 -55 0
17 -19 55 0
21 22 56 0
-21 22 -56 0
21 -22 -56 0
-21 -22 56 0
26 28 57 0
-26 28 -57 0
26 -28 -57 0
-26 -28 57 0
32 38 58 0
-32 38 -58 0
32 -38 -58 0
-32 -38 58 0
-40 -41 59 0
40 -41 -59 0
-40 41 -59 0
40 41 59 0
-47 -50 60 0
47 -50 -60 0
-47 50 -60 0
47 50 60 0
51 -52 61 0
-51 -52 -61 0
51 52 -61 0
-51 52 61 0
53 -54 62 0
-53 -54 -62 0
53 54 -62 0
-53 54 62 0
55 -56 63 0
-55 -56 -63 0
55 56 -63 0
-55 56 63 0
57 -58 64 0
-57 -58 -64 0
57 58 -64 0
-57 58 64 0
59 -60 65 0
-59 -60 -65 0
59 60 -65 0
-59 60 65 0
61 -62 66 0
-61 -62 -66 0
61 62 -66 0
-61 62 66 0
63 -64 67 0
-63 -64 -67 0
63 64 -67 0
-63 64 67 0
-65 -66 67 0
65 -66 -67 0
-65 66 -67 0
65 66 67 0
1 -2 68 0
-1 -2 -68 0
1 2 -68 0
-1 2 68 0
3 4 69 0
-3 4 -69 0
3 -4 -69 0
-3 -4 69 0
5 -6 70 0
-5 -6 -70 0
5 6 -70 0
-5 6 70 0
-7 -8 71 0
7 -8 -71 0
-7 8 -71 0
7 8 71 0
9 -10 72 0
-9 -10 -72 0
9 10 -72 0
-9 10 72 0
11 12 73 0
-11 12 -73 0
11 -12 -73 0
-11 -12 73 0
-15 -18 74 0
15 -18 -74 0
-15 18 -74 0
15 18 74 0
-21 23 75 0
21 23 -75 0
-21 -23 -75 0
21 -23 75 0
26 28 76 0
-26 28 -76 0
26 -28 -76 0
-26 -28 76 0
-29 30 77 0
29 30 -77 0
-29 -30 -77 0
29 -30 77 0
31 34 78 0
-31 34 -78 0
31 -34 -78 0
-31 -34 78 0
35 -36 79 0
-35 -36 -79 0
35 36 -79 0
-35 36 79 0
37 38 80 0
-37 38 -80 0
37 -38 -80 0
-37 -38 80 0
-39 -40 81 0
39 -40 -81 0
-39 40 -81 0
39 40 81 0
44 -45 82 0
-44 -45 -82 0
44 45 -82 0
-44 45 82 0
46 49 83 0
-46 49 -83 0
46 -49 -83 0
-46 -49 83 0
68 -69 84 0
-68 -69 -84 0
68 69 -84 0
-68 69 84 0
70 -71 85 0
-70 -71 -85 0
70 71 -85 0
-70 71 85 0
72 -73 86 0
-72 -73 -86 0
72 73 -86 0
-72 73 86 0
74 -75 87 0
-74 -75 -87 0
74 75 -87 0
-74 75 87 0
76 -77 88 0
-76 -77 -88 0
76 77 -88 0
-76 77 88 0
78 -79 89 0
-78 -79 -89 0
78 79 -89 0
-78 79 89 0
80 -81 90 0
-80 -81 -90 0
80 81 -90 0
-80 81 90 0
82 -83 91 0
-82 -83 -91 0
82 83 -91 0
-82 83 91 0
84 -85 92 0
-84 -85 -92 0
84 85 -92 0
-84 85 92 0
86 -87 93 0
-86 -87 -93 0
86 87 -93 0
-86 87 93 0
88 -89 94 0
-88 -89 -94 0
88 89 -94 0
-88 89 94 0
90 -91 95 0
-90 -91 -95 0
90 91 -95 0
-90 91 95 0
92 -93 96 0
-92 -93 -96 0
92 93 -96 0
-92 93 96 0
94 -95 97 0
-94 -95 -97 0
94 95 -97 0
-94 95 97 0
96 97 0
-96 -97 0
-2 -5 98 0
2 -5 -98 0
-2 5 -98 0
2 5 98 0
-6 9 99 0
6 9 -99 0
-6 -9 -99 0
6 -9 99 0
-10 12 100 0
10 12 -100 0
-10 -12 -100 0
10 -12 100 0
-16 -17 101 0
16 -17 -101 0
-16 17 -101 0
16 17 101 0
-18 -19 102 0
18 -19 -102 0
-18 19 -102 0
18 19 102 0
-20 23 103 0
20 23 -103 0
-20 -23 -103 0
20 -23 103 0
-30 -32 104 0
30 -32 -104 0
-30 32 -104 0
30 32 104 0
-33 -34 105 0
33 -34 -105 0
-33 34 -105 0
33 34 105 0
-36 37 106 0
36 37 -106 0
-36 -37 -106 0
36 -37 106 0
38 41 107 0
-38 41 -107 0
38 -41 -107 0
-38 -41 107 0
43 -44 108 0
-43 -44 -108 0
43 44 -108 0
-43 44 108 0
46 47 109 0
-46 47 -109 0
46 -47 -109 0
-46 -47 109 0
97 -98 110 0
-97 -98 -110 0
97 98 -110 0
-97 98 110 0
99 -100 111 0
-99 -100 -111 0
99 100 -111 0
-99 100 111 0
101 -102 112 0
-101 -102 -112 0
101 102 -112 0
-101 102 112 0
103 -104 113 0
-103 -104 -113 0
103 104 -113 0
-103 104 113 0
105 -106 114 0
-105 -106 -114 0
105 106 -114 0
-105 106 114 0
107 -108 115 0
-107 -108 -115 0
107 108 -115 0
-107 108 115 0
109 -110 116 0
-109 -110 -116 0
109 110 -116 0
-109 110 116 0
111 -112 117 0
-111 -112 -117 0
111 112 -117 0
-111 112 117 0
113 -114 118 0
-113 -114 -118 0
113 114 -118 0
-113 114 118 0
115 -116 119 0
-115 -116 -119 0
115 116 -119 0
-115 116 119 0
117 -118 120 0
-117 -118 -120 0
117 118 -120 0
-117 118 120 0
119 120 0
-119 -120 0
-2 -4 121 0
2 -4 -121 0
-2 4 -121 0
2 4 121 0
5 6 122 0
-5 6 -122 0
5 -6 -122 0
-5 -6 122 0
8 -14 123 0
-8 -14 -123 0
8 14 -123 0
-8 14 123 0
16 17 124 0
-16 17 -124 0
16 -17 -124 0
-16 -17 124 0
18 19 125 0
-18 19 -125 0
18 -19 -125 0
-18 -19 125 0
20 22 126 0
-20 22 -126 0
20 -22 -126 0
-20 -22 126 0
24 -28 127 0
-24 -28 -127 0
24 28 -127 0
-24 28 127 0
29 32 128 0
-29 32 -128 0
29 -32 -128 0
-29 -32 128 0
34 -35 129 0
-34 -35 -129 0
34 35 -129 0
-34 35 129 0
37 -40 130 0
-37 -40 -130 0
37 40 -130 0
-37 40 130 0
-43 -44 131 0
43 -44 -131 0
-43 44 -131 0
43 44 131 0
45 -46 132 0
-45 -46 -132 0
45 46 -132 0
-45 46 132 0
-49 -50 133 0
49 -50 -133 0
-49 50 -133 0
49 50 133 0
121 -122 134 0
-121 -122 -134 0
121 122 -134 0
-121 122 134 0
123 -124 135 0
-123 -124 -135 0
123 124 -135 0
-123 124 135 0
125 -126 136 0
-125 -126 -136 0
125 126 -136 0
-125 126 136 0
127 -128 137 0
-127 -128 -137 0
127 128 -137 0
-127 128 137 0
129 -130 138 0
-129 -130 -138 0
129 130 -138 0
-129 130 138 0
131 -132 139 0
-131 -132 -139 0
131 132 -139 0
-131 132 139 0
133 -134 140 0
-133 -134 -140 0
133 134 -140 0
-133 134 140 0
135 -136 141 0
-135 -136 -141 0
135 136 -141 0
-135 136 141 0
137 -138 142 0
-137 -138 -142 0
137 138 -142 0
-137 138 142 0
139 -140 143 0
-139 -140 -143 0
139 140 -143 0
-139 140 143 0
141 -142 144 0
-141 -142 -144 0
141 142 -144 0
-141 142 144 0
143 144 0
-143 -144 0
1 8 145 0
-1 8 -145 0
1 -8 -145 0
-1 -8 145 0
-9 -10 146 0
9 -10 -146 0
-9 10 -146 0
9 10 146 0
-12 -13 147 0
12 -13 -147 0
-12 13 -147 0
12 13 147 0
-17 -18 148 0
17 -18 -148 0
-17 18 -148 0
17 18 148 0
20 22 149 0
-20 22 -149 0
20 -22 -149 0
-20 -22 149 0
-23 -24 150 0
23 -24 -150 0
-23 24 -150 0
23 24 150 0
28 -31 151 0
-28 -31 -151 0
28 31 -151 0
-28 31 151 0
32 -33 152 0
-32 -33 -152 0
32 33 -152 0
-32 33 152 0
34 35 153 0
-34 35 -153 0
34 -35 -153 0
-34 -35 153 0
-40 41 154 0
40 41 -154 0
-40 -41 -154 0
40 -41 154 0
42 45 155 0
-42 45 -155 0
42 -45 -155 0
-42 -45 155 0
46 -47 156 0
-46 -47 -156 0
46 47 -156 0
-46 47 156 0
144 -145 157 0
-144 -145 -157 0
144 145 -157 0
-144 145 157 0
146 -147 158 0
-146 -147 -158 0
146 147 -158 0
-146 147 158 0
148 -149 159 0
-148 -149 -159 0
148 149 -159 0
-148 149 159 0
150 -151 160 0
-150 -151 -160 0
150 151 -160 0
-150 151 160 0
152 -153 161 0
-152 -153 -161 0
152 153 -161 0
-152 153 161 0
154 -155 162 0
-154 -155 -162 0
154 155 -162 0
-154 155 162 0
156 -157 163 0
-156 -157 -163 0
156 157 -163 0
-156 157 163 0
158 -159 164 0
-158 -159 -164 0
158 159 -164 0
-158 159 164 0
160 -161 165 0
-160 -161 -165 0
160 161 -165 0
-160 161 165 0
162 -163 166 0
-162 -163 -166 0
162 163 -166 0
-162 163 166 0
164 -165 167 0
-164 -165 -167 0
164 165 -167 0
-164 165 167 0
166 167 0
-166 -167 0
-2 9 168 0
2 9 -168 0
-2 -9 -168 0
2 -9 168 0
-13 -14 169 0
13 -14 -169 0
-13 14 -169 0
13 14 169 0
15 -19 170 0
-15 -19 -170 0
15 19 -170 0
-15 19 170 0
-20 21 171 0
20 21 -171 0
-20 -21 -171 0
20 -21 171 0
22 -26 172 0
-22 -26 -172 0
22 26 -172 0
-22 26 172 0
27 -29 173 0
-27 -29 -173 0
27 29 -173 0
-27 29 173 0
31 -32 174 0
-31 -32 -174 0
31 32 -174 0
-31 32 174 0
-35 -39 175 0
35 -39 -175 0
-35 39 -175 0
35 39 175 0
40 -43 176 0
-40 -43 -176 0
40 43 -176 0
-40 43 176 0
45 -46 177 0
-45 -46 -177 0
45 46 -177 0
-45 46 177 0
47 -48 178 0
-47 -48 -178 0
47 48 -178 0
-47 48 178 0
167 -168 179 0
-167 -168 -179 0
167 168 -179 0
-167 168 179 0
169 -170 180 0
-169 -170 -180 0
169 170 -180 0
-169 170 180 0
171 -172 181 0
-171 -172 -181 0
171 172 -181 0
-171 172 181 0
173 -174 182 0
-173 -174 -182 0
173 174 -182 0
-173 174 182 0
175 -176 183 0
-175 -176 -183 0
175 176 -183 0
-175 176 183 0
177 -178 184 0
-177 -178 -184 0
177 178 -184 0
-177 178 184 0
179 -180 185 0
-179 -180 -185 0
179 180 -185 0
-179 180 185 0
181 -182 186 0
-181 -182 -186 0
181 182 -186 0
-181 182 186 0
183 -184 187 0
-183 -184 -187 0
183 184 -187 0
-183 184 187 0
-185 -186 187 0
185 -186 -187 0
-185 186 -187 0
185 186 187 0
-3 4 188 0
3 4 -188 0
-3 -4 -188 0
3 -4 188 0
6 -9 189 0
-6 -9 -189 0
6 9 -189 0
-6 9 189 0
-12 13 190 0
12 13 -190 0
-12 -13 -190 0
12 -13 190 0
-16 17 191 0
16 17 -191 0
-16 -17 -191 0
16 -17 191 0
-18 -20 192 0
18 -20 -192 0
-18 20 -192 0
18 20 192 0
21 23 193 0
-21 23 -193 0
21 -23 -193 0
-21 -23 193 0
-24 -28 194 0
24 -28 -194 0
-24 28 -194 0
24 28 194 0
33 35 195 0
-33 35 -195 0
33 -35 -195 0
-33 -35 195 0
-36 37 196 0
36 37 -196 0
-36 -37 -196 0
36 -37 196 0
38 -39 197 0
-38 -39 -197 0
38 39 -197 0
-38 39 197 0
-46 -48 198 0
46 -48 -198 0
-46 48 -198 0
46 48 198 0
188 -189 199 0
-188 -189 -199 0
188 189 -199 0
-188 189 199 0
190 -191 200 0
-190 -191 -200 0
190 191 -200 0
-190 191 200 0
192 -193 201 0
-192 -193 -201 0
192 193 -201 0
-192 193 201 0
194 -195 202 0
-194 -195 -202 0
194 195 -202 0
-194 195 202 0
196 -197 203 0
-196 -197 -203 0
196 197 -203 0
-196 197 203 0
198 -199 204 0
-198 -199 -204 0
198 199 -204 0
-198 199 204 0
200 -201 205 0
-200 -201 -205 0
200 201 -205 0
-200 201 205 0
202 -203 206 0
-202 -203 -206 0
202 203 -206 0
-202 203 206 0
-204 -205 206 0
204 -205 -206 0
-204 205 -206 0
204 205 206 0
-1 -2 207 0
1 -2 -207 0
-1 2 -207 0
1 2 207 0
-3 8 208 0
3 8 -208 0
-3 -8 -208 0
3 -8 208 0
9 -15 209 0
-9 -15 -209 0
9 15 -209 0
-9 15 209 0
-21 22 210 0
21 22 -210 0
-21 -22 -210 0
21 -22 210 0
-24 -25 211 0
24 -25 -211 0
-24 25 -211 0
24 25 211 0
26 29 212 0
-26 29 -212 0
26 -29 -212 0
-26 -29 212 0
30 31 213 0
-30 31 -213 0
30 -31 -213 0
-30 -31 213 0
-32 33 214 0
32 33 -214 0
-32 -33 -214 0
32 -33 214 0
34 35 215 0
-34 35 -215 0
34 -35 -215 0
-34 -35 215 0
-36 37 216 0
36 37 -216 0
-36 -37 -216 0
36 -37 216 0
40 -45 217 0
-40 -45 -217 0
40 45 -217 0
-40 45 217 0
-47 49 218 0
47 49 -218 0
-47 -49 -218 0
47 -49 218 0
206 -207 219 0
-206 -207 -219 0
206 207 -219 0
-206 207 219 0
208 -209 220 0
-208 -209 -220 0
208 209 -220 0
-208 209 220 0
210 -211 221 0
-210 -211 -221 0
210 211 -221 0
-210 211 221 0
212 -213 222 0
-212 -213 -222 0
212 213 -222 0
-212 213 222 0
214 -215 223 0
-214 -215 -223 0
214 215 -223 0
-214 215 223 0
216 -217 224 0
-216 -217 -224 0
216 217 -224 0
-216 217 224 0
218 -219 225 0
-218 -219 -225 0
218 219 -225 0
-218 219 225 0
220 -221 226 0
-220 -221 -226 0
220 221 -226 0
-220 221 226 0
222 -223 227 0
-222 -223 -227 0
222 223 -227 0
-222 223 227 0
224 -225 228 0
-224 -225 -228 0
224 225 -228 0
-224 225 228 0
226 -227 229 0
-226 -227 -229 0
226 227 -229 0
-226 227 229 0
228 229 0
-228 -229 0
8 9 230 0
-8 9 -230 0
8 -9 -230 0
-8 -9 230 0
11 15 231 0
-11 15 -231 0
11 -15 -231 0
-11 -15 231 0
17 -18 232 0
-17 -18 -232 0
17 18 -232 0
-17 18 232 0
-19 20 233 0
19 20 -233 0
-19 -20 -233 0
19 -20 233 0
21 23 234 0
-21 23 -234 0
21 -23 -234 0
-21 -23 234 0
25 26 235 0
-25 26 -235 0
25 -26 -235 0
-25 -26 235 0
-27 31 236 0
27 31 -236 0
-27 -31 -236 0
27 -31 236 0
34 35 237 0
-34 35 -237 0
34 -35 -237 0
-34 -35 237 0
37 38 238 0
-37 38 -238 0
37 -38 -238 0
-37 -38 238 0
43 46 239 0
-43 46 -239 0
43 -46 -239 0
-43 -46 239 0
-49 50 240 0
49 50 -240 0
-49 -50 -240 0
49 -50 240 0
230 -231 241 0
-230 -231 -241 0
230 231 -241 0
-230 231 241 0
232 -233 242 0
-232 -233 -242 0
232 233 -242 0
-232 233 242 0
234 -235 243 0
-234 -235 -243 0
234 235 -243 0
-234 235 243 0
236 -237 244 0
-236 -237 -244 0
236 237 -244 0
-236 237 244 0
238 -239 245 0
-238 -239 -245 0
238 239 -245 0
-238 239 245 0
240 -241 246 0
-240 -241 -246 0
240 241 -246 0
-240 241 246 0
242 -243 247 0
-242 -243 -247 0
242 243 -247 0
-242 243 247 0
244 -245 248 0
-244 -245 -248 0
244 245 -248 0
-244 245 248 0
-246 -247 248 0
246 -247 -248 0
-246 247 -248 0
246 247 248 0
-1 2 249 0
1 2 -249 0
-1 -2 -249 0
1 -2 249 0
4 -6 250 0
-4 -6 -250 0
4 6 -250 0
-4 6 250 0
-7 9 251 0
7 9 -251 0
-7 -9 -251 0
7 -9 251 0
13 14 252 0
-13 14 -252 0
13 -14 -252 0
-13 -14 252 0
16 -21 253 0
-16 -21 -253 0
16 21 -253 0
-16 21 253 0
22 -24 254 0
-22 -24 -254 0
22 24 -254 0
-22 24 254 0
25 -26 255 0
-25 -26 -255 0
25 26 -255 0
-25 26 255 0
-27 32 256 0
27 32 -256 0
-27 -32 -256 0
27 -32 256 0
34 -36 257 0
-34 -36 -257 0
34 36 -257 0
-34 36 257 0
-37 38 258 0
37 38 -258 0
-37 -38 -258 0
37 -38 258 0
40 -46 259 0
-40 -46 -259 0
40 46 -259 0
-40 46 259 0
248 -249 260 0
-248 -249 -260 0
248 249 -260 0
-248 249 260 0
250 -251 261 0
-250 -251 -261 0
250 251 -261 0
-250 251 261 0
252 -253 262 0
-252 -253 -262 0
252 253 -262 0
-252 253 262 0
254 -255 263 0
-254 -255 -263 0
254 255 -263 0
-254 255 263 0
256 -257 264 0
-256 -257 -264 0
256 257 -264 0
-256 257 264 0
258 -259 265 0
-258 -259 -265 0
258 259 -265 0
-258 259 265 0
260 -261 266 0
-260 -261 -266 0
260 261 -266 0
-260 261 266 0
262 -263 267 0
-262 -263 -267 0
262 263 -267 0
-262 263 267 0
264 -265 268 0
-264 -265 -268 0
264 265 -268 0
-264 265 268 0
-266 -267 268 0
266 -267 -268 0
-266 267 -268 0
266 267 268 0
1 -2 269 0
-1 -2 -269 0
1 2 -269 0
-1 2 269 0
-5 -8 270 0
5 -8 -270 0
-5 8 -270 0
5 8 270 0
-9 -10 271 0
9 -10 -271 0
-9 10 -271 0
9 10 271 0
-11 12 272 0
11 12 -272 0
-11 -12 -272 0
11 -12 272 0
14 15 273 0
-14 15 -273 0
14 -15 -273 0
-14 -15 273 0
-16 -17 274 0
16 -17 -274 0
-16 17 -274 0
16 17 274 0
-19 21 275 0
19 21 -275 0
-19 -21 -275 0
19 -21 275 0
22 -24 276 0
-22 -24 -276 0
22 24 -276 0
-22 24 276 0
27 29 277 0
-27 29 -277 0
27 -29 -277 0
-27 -29 277 0
-31 -35 278 0
31 -35 -278 0
-31 35 -278 0
31 35 278 0
-37 -40 279 0
37 -40 -279 0
-37 40 -279 0
37 40 279 0
-42 -44 280 0
42 -44 -280 0
-42 44 -280 0
42 44 280 0
48 49 281 0
-48 49 -281 0
48 -49 -281 0
-48 -49 281 0
269 -270 282 0
-269 -270 -282 0
269 270 -282 0
-269 270 282 0
271 -272 283 0
-271 -272 -283 0
271 272 -283 0
-271 272 283 0
273 -274 284 0
-273 -274 -284 0
273 274 -284 0
-273 274 284 0
275 -276 285 0
-275 -276 -285 0
275 276 -285 0
-275 276 285 0
277 -278 286 0
-277 -278 -286 0
277 278 -286 0
-277 278 286 0
279 -280 287 0
-279 -280 -287 0
279 280 -287 0
-279 280 287 0
281 -282 288 0
-281 -282 -288 0
281 282 -288 0
-281 282 288 0
283 -284 289 0
-283 -284 -289 0
283 284 -289 0
-283 284 289 0
285 -286 290 0
-285 -286 -290 0
285 286 -290 0
-285 286 290 0
287 -288 291 0
-287 -288 -291 0
287 288 -291 0
-287 288 291 0
289 -290 292 0
-289 -290 -292 0
289 290 -292 0
-289 290 292 0
291 292 0
-291 -292 0
-1 -4 293 0
1 -4 -293 0
-1 4 -293 0
1 4 293 0
-5 -6 294 0
5 -6 -294 0
-5 6 -294 0
5 6 294 0
-7 -9 295 0
7 -9 -295 0
-7 9 -295 0
7 9 295 0
-12 14 296 0
12 14 -296 0
-12 -14 -296 0
12 -14 296 0
15 17 297 0
-15 17 -297 0
15 -17 -297 0
-15 -17 297 0
18 19 298 0
-18 19 -298 0
18 -19 -298 0
-18 -19 298 0
21 -22 299 0
-21 -22 -299 0
21 22 -299 0
-21 22 299 0
-25 26 300 0
25 26 -300 0
-25 -26 -300 0
25 -26 300 0
31 33 301 0
-31 33 -301 0
31 -33 -301 0
-31 -33 301 0
-34 -36 302 0
34 -36 -302 0
-34 36 -302 0
34 36 302 0
-37 -39 303 0
37 -39 -303 0
-37 39 -303 0
37 39 303 0
40 41 304 0
-40 41 -304 0
40 -41 -304 0
-40 -41 304 0
-42 45 305 0
42 45 -305 0
-42 -45 -305 0
42 -45 305 0
48 -49 306 0
-48 -49 -306 0
48 49 -306 0
-48 49 306 0
292 -293 307 0
-292 -293 -307 0
292 293 -307 0
-292 293 307 0
294 -295 308 0
-294 -295 -308 0
294 295 -308 0
-294 295 308 0
296 -297 309 0
-296 -297 -309 0
296 297 -309 0
-296 297 309 0
298 -299 310 0
-298 -299 -310 0
298 299 -310 0
-298 299 310 0
300 -301 311 0
-300 -301 -311 0
300 301 -311 0
-300 301 311 0
302 -303 312 0
-302 -303 -312 0
302 303 -312 0
-302 303 312 0
304 -305 313 0
-304 -305 -313 0
304 305 -313 0
-304 305 313 0
306 -307 314 0
-306 -307 -314 0
306 307 -314 0
-306 307 314 0
308 -309 315 0
-308 -309 -315 0
308 309 -315 0
-308 309 315 0
310 -311 316 0
-310 -311 -316 0
310 311 -316 0
-310 311 316 0
312 -313 317 0
-312 -313 -317 0
312 313 -317 0
-312 313 317 0
314 -315 318 0
-314 -315 -318 0
314 315 -318 0
-314 315 318 0
316 -317 319 0
-316 -317 -319 0
316 317 -319 0
-316 317 319 0
318 319 0
-318 -319 0
1 7 320 0
-1 7 -320 0
1 -7 -320 0
-1 -7 320 0
9 11 321 0
-9 11 -321 0
9 -11 -321 0
-9 -11 321 0
12 -13 322 0
-12 -13 -322 0
12 13 -322 0
-12 13 322 0
15 -16 323 0
-15 -16 -323 0
15 16 -323 0
-15 16 323 0
-17 -25 324 0
17 -25 -324 0
-17 25 -324 0
17 25 324 0
-26 29 325 0
26 29 -325 0
-26 -29 -325 0
26 -29 325 0
-32 -34 326 0
32 -34 -326 0
-32 34 -326 0
32 34 326 0
-38 39 327 0
38 39 -327 0
-38 -39 -327 0
38 -39 327 0
42 45 328 0
-42 45 -328 0
42 -45 -328 0
-42 -45 328 0
-46 47 329 0
46 47 -329 0
-46 -47 -329 0
46 -47 329 0
319 -320 330 0
-319 -320 -330 0
319 320 -330 0
-319 320 330 0
321 -322 331 0
-321 -322 -331 0
321 322 -331 0
-321 322 331 0
323 -324 332 0
-323 -324 -332 0
323 324 -332 0
-323 324 332 0
325 -326 333 0
-325 -326 -333 0
325 326 -333 0
-325 326 333 0
327 -328 334 0
-327 -328 -334 0
327 328 -334 0
-327 328 334 0
329 -330 335 0
-329 -330 -335 0
329 330 -335 0
-329 330 335 0
331 -332 336 0
-331 -332 -336 0
331 332 -336 0
-331 332 336 0
333 -334 337 0
-333 -334 -337 0
333 334 -337 0
-333 334 337 0
-335 -336 337 0
335 -336 -337 0
-335 336 -337 0
335 336 337 0
2 7 338 0
-2 7 -338 0
2 -7 -338 0
-2 -7 338 0
-8 9 339 0
8 9 -339 0
-8 -9 -339 0
8 -9 339 0
11 -12 340 0
-11 -12 -340 0
11 12 -340 0
-11 12 340 0
13 -15 341 0
-13 -15 -341 0
13 15 -341 0
-13 15 341 0
16 17 342 0
-16 17 -342 0
16 -17 -342 0
-16 -17 342 0
-18 -20 343 0
18 -20 -343 0
-18 20 -343 0
18 20 343 0
22 -25 344 0
-22 -25 -344 0
22 25 -344 0
-22 25 344 0
-26 27 345 0
26 27 -345 0
-26 -27 -345 0
26 -27 345 0
-28 -29 346 0
28 -29 -346 0
-28 29 -346 0
28 29 346 0
31 -32 347 0
-31 -32 -347 0
31 32 -347 0
-31 32 347 0
36 38 348 0
-36 38 -348 0
36 -38 -348 0
-36 -38 348 0
-40 -41 349 0
40 -41 -349 0
-40 41 -349 0
40 41 349 0
-42 43 350 0
42 43 -350 0
-42 -43 -350 0
42 -43 350 0
-44 45 351 0
44 45 -351 0
-44 -45 -351 0
44 -45 351 0
338 -339 352 0
-338 -339 -352 0
338 339 -352 0
-338 339 352 0
340 -341 353 0
-340 -341 -353 0
340 341 -353 0
-340 341 353 0
342 -343 354 0
-342 -343 -354 0
342 343 -354 0
-342 343 354 0
344 -345 355 0
-344 -345 -355 0
344 345 -355 0
-344 345 355 0
346 -347 356 0
-346 -347 -356 0
346 347 -356 0
-346 347 356 0
348 -349 357 0
-348 -349 -357 0
348 349 -357 0
-348 349 357 0
350 -351 358 0
-350 -351 -358 0
350 351 -358 0
-350 351 358 0
352 -353 359 0
-352 -353 -359 0
352 353 -359 0
-352 353 359 0
354 -355 360 0
-354 -355 -360 0
354 355 -360 0
-354 355 360 0
356 -357 361 0
-356 -357 -361 0
356 357 -361 0
-356 357 361 0
358 -359 362 0
-358 -359 -362 0
358 359 -362 0
-358 359 362 0
360 -361 363 0
-360 -361 -363 0
360 361 -363 0
-360 361 363 0
362 363 0
-362 -363 0
-3 -5 364 0
3 -5 -364 0
-3 5 -364 0
3 5 364 0
-6 -8 365 0
6 -8 -365 0
-6 8 -365 0
6 8 365 0
9 11 366 0
-9 11 -366 0
9 -11 -366 0
-9 -11 366 0
-13 -14 367 0
13 -14 -367 0
-13 14 -367 0
13 14 367 0
-18 20 368 0
18 20 -368 0
-18 -20 -368 0
18 -20 368 0
-21 -24 369 0
21 -24 -369 0
-21 24 -369 0
21 24 369 0
27 -28 370 0
-27 -28 -370 0
27 28 -370 0
-27 28 370 0
-31 -32 371 0
31 -32 -371 0
-31 32 -371 0
31 32 371 0
34 -35 372 0
-34 -35 -372 0
34 35 -372 0
-34 35 372 0
-41 44 373 0
41 44 -373 0
-41 -44 -373 0
41 -44 373 0
-46 -47 374 0
46 -47 -374 0
-46 47 -374 0
46 47 374 0
363 -364 375 0
-363 -364 -375 0
363 364 -375 0
-363 364 375 0
365 -366 376 0
-365 -366 -376 0
365 366 -376 0
-365 366 376 0
367 -368 377 0
-367 -368 -377 0
367 368 -377 0
-367 368 377 0
369 -370 378 0
-369 -370 -378 0
369 370 -378 0
-369 370 378 0
371 -372 379 0
-371 -372 -379 0
371 372 -379 0
-371 372 379 0
373 -374 380 0
-373 -374 -380 0
373 374 -380 0
-373 374 380 0
375 -376 381 0
-375 -376 -381 0
375 376 -381 0
-375 376 381 0
377 -378 382 0
-377 -378 -382 0
377 378 -382 0
-377 378 382 0
379 -380 383 0
-379 -380 -383 0
379 380 -383 0
-379 380 383 0
-381 -382 383 0
381 -382 -383 0
-381 382 -383 0
381 382 383 0
1 -5 384 0
-1 -5 -384 0
1 5 -384 0
-1 5 384 0
-6 8 385 0
6 8 -385 0
-6 -8 -385 0
6 -8 385 0
15 22 386 0
-15 22 -386 0
15 -22 -386 0
-15 -22 386 0
24 -25 387 0
-24 -25 -387 0
24 25 -387 0
-24 25 387 0
-26 -27 388 0
26 -27 -388 0
-26 27 -388 0
26 27 388 0
-28 30 389 0
28 30 -389 0
-28 -30 -389 0
28 -30 389 0
-31 32 390 0
31 32 -390 0
-31 -32 -390 0
31 -32 390 0
34 35 391 0
-34 35 -391 0
34 -35 -391 0
-34 -35 391 0
-36 -37 392 0
36 -37 -392 0
-36 37 -392 0
36 37 392 0
-39 40 393 0
39 40 -393 0
-39 -40 -393 0
39 -40 393 0
42 -43 394 0
-42 -43 -394 0
42 43 -394 0
-42 43 394 0
44 47 395 0
-44 47 -395 0
44 -47 -395 0
-44 -47 395 0
-48 -50 396 0
48 -50 -396 0
-48 50 -396 0
48 50 396 0
384 -385 397 0
-384 -385 -397 0
384 385 -397 0
-384 385 397 0
386 -387 398 0
-386 -387 -398 0
386 387 -398 0
-386 387 398 0
388 -389 399 0
-388 -389 -399 0
388 389 -399 0
-388 389 399 0
390 -391 400 0
-390 -391 -400 0
390 391 -400 0
-390 391 400 0
392 -393 401 0
-392 -393 -401 0
392 393 -401 0
-392 393 401 0
394 -395 402 0
-394 -395 -402 0
394 395 -402 0
-394 395 402 0
396 -397 403 0
-396 -397 -403 0
396 397 -403 0
-396 397 403 0
398 -399 404 0
-398 -399 -404 0
398 399 -404 0
-398 399 404 0
400 -401 405 0
-400 -401 -405 0
400 401 -405 0
-400 401 405 0
402 -403 406 0
-402 -403 -406 0
402 403 -406 0
-402 403 406 0
404 -405 407 0
-404 -405 -407 0
404 405 -407 0
-404 405 407 0
406 407 0
-406 -407 0
-1 -4 408 0
1 -4 -408 0
-1 4 -408 0
1 4 408 0
6 -7 409 0
-6 -7 -409 0
6 7 -409 0
-6 7 409 0
8 10 410 0
-8 10 -410 0
8 -10 -410 0
-8 -10 410 0
11 12 411 0
-11 12 -411 0
11 -12 -411 0
-11 -12 411 0
13 -14 412 0
-13 -14 -412 0
13 14 -412 0
-13 14 412 0
18 -21 413 0
-18 -21 -413 0
18 21 -413 0
-18 21 413 0
26 28 414 0
-26 28 -414 0
26 -28 -414 0
-26 -28 414 0
30 32 415 0
-30 32 -415 0
30 -32 -415 0
-30 -32 415 0
-34 -39 416 0
34 -39 -416 0
-34 39 -416 0
34 39 416 0
40 -41 417 0
-40 -41 -417 0
40 41 -417 0
-40 41 417 0
-42 -43 418 0
42 -43 -418 0
-42 43 -418 0
42 43 418 0
407 -408 419 0
-407 -408 -419 0
407 408 -419 0
-407 408 419 0
409 -410 420 0
-409 -410 -420 0
409 410 -420 0
-409 410 420 0
411 -412 421 0
-411 -412 -421 0
411 412 -421 0
-411 412 421 0
413 -414 422 0
-413 -414 -422 0
413 414 -422 0
-413 414 422 0
415 -416 423 0
-415 -416 -423 0
415 416 -423 0
-415 416 423 0
417 -418 424 0
-417 -418 -424 0
417 418 -424 0
-417 418 424 0
419 -420 425 0
-419 -420 -425 0
419 420 -425 0
-419 420 425 0
421 -422 426 0
-421 -422 -426 0
421 422 -426 0
-421 422 426 0
423 -424 427 0
-423 -424 -427 0
423 424 -427 0
-423 424 427 0
-425 -426 427 0
425 -426 -427 0
-425 426 -427 0
425 426 427 0
-2 7 428 0
2 7 -428 0
-2 -7 -428 0
2 -7 428 0
11 12 429 0
-11 12 -429 0
11 -12 -429 0
-11 -12 429 0
15 21 430 0
-15 21 -430 0
15 -21 -430 0
-15 -21 430 0
-23 -24 431 0
23 -24 -431 0
-23 24 -431 0
23 24 431 0
28 29 432 0
-28 29 -432 0
28 -29 -432 0
-28 -29 432 0
-31 -32 433 0
31 -32 -433 0
-31 32 -433 0
31 32 433 0
-38 39 434 0
38 39 -434 0
-38 -39 -434 0
38 -39 434 0
41 -43 435 0
-41 -43 -435 0
41 43 -435 0
-41 43 435 0
427 -428 436 0
-427 -428 -436 0
427 428 -436 0
-427 428 436 0
429 -430 437 0
-429 -430 -437 0
429 430 -437 0
-429 430 437 0
431 -432 438 0
-431 -432 -438 0
431 432 -438 0
-431 432 438 0
433 -434 439 0
-433 -434 -439 0
433 434 -439 0
-433 434 439 0
435 -436 440 0
-435 -436 -440 0
435 436 -440 0
-435 436 440 0
437 -438 441 0
-437 -438 -441 0
437 438 -441 0
-437 438 441 0
-439 -440 441 0
439 -440 -441 0
-439 440 -441 0
439 440 441 0
-1 2 442 0
1 2 -442 0
-1 -2 -442 0
1 -2 442 0
3 6 443 0
-3 6 -443 0
3 -6 -443 0
-3 -6 443 0
-7 9 444 0
7 9 -444 0
-7 -9 -444 0
7 -9 444 0
10 11 445 0
-10 11 -445 0
10 -11 -445 0
-10 -11 445 0
-14 15 446 0
14 15 -446 0
-14 -15 -446 0
14 -15 446 0
-16 -19 447 0
16 -19 -447 0
-16 19 -447 0
16 19 447 0
20 -27 448 0
-20 -27 -448 0
20 27 -448 0
-20 27 448 0
-29 30 449 0
29 30 -449 0
-29 -30 -449 0
29 -30 449 0
32 -35 450 0
-32 -35 -450 0
32 35 -450 0
-32 35 450 0
39 -40 451 0
-39 -40 -451 0
39 40 -451 0
-39 40 451 0
-41 44 452 0
41 44 -452 0
-41 -44 -452 0
41 -44 452 0
48 -50 453 0
-48 -50 -453 0
48 50 -453 0
-48 50 453 0
442 -443 454 0
-442 -443 -454 0
442 443 -454 0
-442 443 454 0
444 -445 455 0
-444 -445 -455 0
444 445 -455 0
-444 445 455 0
446 -447 456 0
-446 -447 -456 0
446 447 -456 0
-446 447 456 0
448 -449 457 0
-448 -449 -457 0
448 449 -457 0
-448 449 457 0
450 -451 458 0
-450 -451 -458 0
450 451 -458 0
-450 451 458 0
452 -453 459 0
-452 -453 -459 0
452 453 -459 0
-452 453 459 0
454 -455 460 0
-454 -455 -460 0
454 455 -460 0
-454 455 460 0
456 -457 461 0
-456 -457 -461 0
456 457 -461 0
-456 457 461 0
458 -459 462 0
-458 -459 -462 0
458 459 -462 0
-458 459 462 0
-460 -461 462 0
460 -461 -462 0
-460 461 -462 0
460 461 462 0
3 4 463 0
-3 4 -463 0
3 -4 -463 0
-3 -4 463 0
6 7 464 0
-6 7 -464 0
6 -7 -464 0
-6 -7 464 0
-9 -13 465 0
9 -13 -465 0
-9 13 -465 0
9 13 465 0
16 -18 466 0
-16 -18 -466 0
16 18 -466 0
-16 18 466 0
-20 -22 467 0
20 -22 -467 0
-20 22 -467 0
20 22 467 0
-25 26 468 0
25 26 -468 0
-25 -26 -468 0
25 -26 468 0
27 -29 469 0
-27 -29 -469 0
27 29 -469 0
-27 29 469 0
-32 33 470 0
32 33 -470 0
-32 -33 -470 0
32 -33 470 0
34 -37 471 0
-34 -37 -471 0
34 37 -471 0
-34 37 471 0
-40 -41 472 0
40 -41 -472 0
-40 41 -472 0
40 41 472 0
-42 -43 473 0
42 -43 -473 0
-42 43 -473 0
42 43 473 0
46 47 474 0
-46 47 -474 0
46 -47 -474 0
-46 -47 474 0
49 -50 475 0
-49 -50 -475 0
49 50 -475 0
-49 50 475 0
463 -464 476 0
-463 -464 -476 0
463 464 -476 0
-463 464 476 0
465 -466 477 0
-465 -466 -477 0
465 466 -477 0
-465 466 477 0
467 -468 478 0
-467 -468 -478 0
467 468 -478 0
-467 468 478 0
469 -470 479 0
-469 -470 -479 0
469 470 -479 0
-469 470 479 0
471 -472 480 0
-471 -472 -480 0
471 472 -480 0
-471 472 480 0
473 -474 481 0
-473 -474 -481 0
473 474 -481 0
-473 474 481 0
475 -476 482 0
-475 -476 -482 0
475 476 -482 0
-475 476 482 0
477 -478 483 0
-477 -478 -483 0
477 478 -483 0
-477 478 483 0
479 -480 484 0
-479 -480 -484 0
479 480 -484 0
-479 480 484 0
481 -482 485 0
-481 -482 -485 0
481 482 -485 0
-481 482 485 0
483 -484 486 0
-483 -484 -486 0
483 484 -486 0
-483 484 486 0
485 486 0
-485 -486 0
